
Gurobi 12.0.2 (win64) logging started Mon Nov 10 21:26:05 2025

Set parameter LogFile to value "C:\Ioana\_uni\honours\slp\algorithm\Main_files\results\paracetamol_numaistiu\Task_005_Sample004_irr_gurobi.log"
Gurobi Optimizer version 12.0.2 build v12.0.2rc0 (win64 - Windows 11.0 (26100.2))

CPU model: Intel(R) Core(TM) Ultra 5 125H, instruction set [SSE2|AVX|AVX2]
Thread count: 14 physical cores, 18 logical processors, using up to 18 threads

Non-default parameters:
TimeLimit  2200

Optimize a model with 47236 rows, 34507 columns and 146717 nonzeros
Model fingerprint: 0x50046a52
Variable types: 17258 continuous, 17249 integer (17249 binary)
Coefficient statistics:
  Matrix range     [1e-04, 8e+04]
  Objective range  [1e-04, 9e-01]
  Bounds range     [1e+00, 1e+03]
  RHS range        [1e+00, 1e+00]
Presolve removed 30834 rows and 21553 columns
Presolve time: 0.34s
Presolved: 16402 rows, 12954 columns, 54589 nonzeros
Variable types: 6410 continuous, 6544 integer (6544 binary)

Root relaxation: objective 8.772213e-01, 4097 iterations, 0.35 seconds (0.85 work units)

    Nodes    |    Current Node    |     Objective Bounds      |     Work
 Expl Unexpl |  Obj  Depth IntInf | Incumbent    BestBd   Gap | It/Node Time

     0     0    0.87722    0    5          -    0.87722      -     -    0s
H    0     0                       0.9381325    0.87722  6.49%     -    0s
H    0     0                       0.9037189    0.87722  2.93%     -    0s
     0     0    0.88941    0    7    0.90372    0.88941  1.58%     -    0s
     0     0    0.88941    0    2    0.90372    0.88941  1.58%     -    1s
     0     0    0.90079    0    2    0.90372    0.90079  0.32%     -    1s
     0     0     cutoff    0         0.90372    0.90372  0.00%     -    1s

Cutting planes:
  Cover: 1
  Flow cover: 2
  Flow path: 1
  Relax-and-lift: 1

Explored 1 nodes (4572 simplex iterations) in 1.07 seconds (1.54 work units)
Thread count was 18 (of 18 available processors)

Solution count 2: 0.903719 0.938132 

Optimal solution found (tolerance 1.00e-04)
Best objective 9.037188560395e-01, best bound 9.037188560395e-01, gap 0.0000%
